c Pigeonhole principle formula for 2 pigeons and 4 holes
c Generated with `cnfgen`
c (C) 2012-2019 Massimo Lauria <massimo.lauria@uniroma1.it>
c https://massimolauria.net/cnfgen
c
c COMMAND LINE: cnfgen -v -o pigeon3.cnf php 2 4
c
p cnf 8 6
1 2 3 4 0
5 6 7 8 0
-1 -5 0
-2 -6 0
-3 -7 0
-4 -8 0
